c File: flat175_3_0.col
c
c SOURCE: Joseph Culberson (joe@cs.ualberta.ca)
c DESCRIPTION: Quasi-random coloring problem
c              generated with flatness = 0
c                             probability = 0.041
c                             known coloring = 3
c                             random seed = 1076
c              Creation Date:  Wed Feb 24 10:55:27 1999
c Maximum degree = 8 Minimum degree = 1
c COLOR VERIFICATION: Using the permuted order
c under simple greedy yields the specified
c coloring number
c Color = 3 specified partitions = 3
c p edge 175 417
c cnf created by edge2cnf
p cnf 525 1951
-1 -2 0
-1 -3 0
-2 -3 0
1 2 3 0
-4 -5 0
-4 -6 0
-5 -6 0
4 5 6 0
-7 -8 0
-7 -9 0
-8 -9 0
7 8 9 0
-10 -11 0
-10 -12 0
-11 -12 0
10 11 12 0
-13 -14 0
-13 -15 0
-14 -15 0
13 14 15 0
-16 -17 0
-16 -18 0
-17 -18 0
16 17 18 0
-19 -20 0
-19 -21 0
-20 -21 0
19 20 21 0
-22 -23 0
-22 -24 0
-23 -24 0
22 23 24 0
-25 -26 0
-25 -27 0
-26 -27 0
25 26 27 0
-28 -29 0
-28 -30 0
-29 -30 0
28 29 30 0
-31 -32 0
-31 -33 0
-32 -33 0
31 32 33 0
-34 -35 0
-34 -36 0
-35 -36 0
34 35 36 0
-37 -38 0
-37 -39 0
-38 -39 0
37 38 39 0
-40 -41 0
-40 -42 0
-41 -42 0
40 41 42 0
-43 -44 0
-43 -45 0
-44 -45 0
43 44 45 0
-46 -47 0
-46 -48 0
-47 -48 0
46 47 48 0
-49 -50 0
-49 -51 0
-50 -51 0
49 50 51 0
-52 -53 0
-52 -54 0
-53 -54 0
52 53 54 0
-55 -56 0
-55 -57 0
-56 -57 0
55 56 57 0
-58 -59 0
-58 -60 0
-59 -60 0
58 59 60 0
-61 -62 0
-61 -63 0
-62 -63 0
61 62 63 0
-64 -65 0
-64 -66 0
-65 -66 0
64 65 66 0
-67 -68 0
-67 -69 0
-68 -69 0
67 68 69 0
-70 -71 0
-70 -72 0
-71 -72 0
70 71 72 0
-73 -74 0
-73 -75 0
-74 -75 0
73 74 75 0
-76 -77 0
-76 -78 0
-77 -78 0
76 77 78 0
-79 -80 0
-79 -81 0
-80 -81 0
79 80 81 0
-82 -83 0
-82 -84 0
-83 -84 0
82 83 84 0
-85 -86 0
-85 -87 0
-86 -87 0
85 86 87 0
-88 -89 0
-88 -90 0
-89 -90 0
88 89 90 0
-91 -92 0
-91 -93 0
-92 -93 0
91 92 93 0
-94 -95 0
-94 -96 0
-95 -96 0
94 95 96 0
-97 -98 0
-97 -99 0
-98 -99 0
97 98 99 0
-100 -101 0
-100 -102 0
-101 -102 0
100 101 102 0
-103 -104 0
-103 -105 0
-104 -105 0
103 104 105 0
-106 -107 0
-106 -108 0
-107 -108 0
106 107 108 0
-109 -110 0
-109 -111 0
-110 -111 0
109 110 111 0
-112 -113 0
-112 -114 0
-113 -114 0
112 113 114 0
-115 -116 0
-115 -117 0
-116 -117 0
115 116 117 0
-118 -119 0
-118 -120 0
-119 -120 0
118 119 120 0
-121 -122 0
-121 -123 0
-122 -123 0
121 122 123 0
-124 -125 0
-124 -126 0
-125 -126 0
124 125 126 0
-127 -128 0
-127 -129 0
-128 -129 0
127 128 129 0
-130 -131 0
-130 -132 0
-131 -132 0
130 131 132 0
-133 -134 0
-133 -135 0
-134 -135 0
133 134 135 0
-136 -137 0
-136 -138 0
-137 -138 0
136 137 138 0
-139 -140 0
-139 -141 0
-140 -141 0
139 140 141 0
-142 -143 0
-142 -144 0
-143 -144 0
142 143 144 0
-145 -146 0
-145 -147 0
-146 -147 0
145 146 147 0
-148 -149 0
-148 -150 0
-149 -150 0
148 149 150 0
-151 -152 0
-151 -153 0
-152 -153 0
151 152 153 0
-154 -155 0
-154 -156 0
-155 -156 0
154 155 156 0
-157 -158 0
-157 -159 0
-158 -159 0
157 158 159 0
-160 -161 0
-160 -162 0
-161 -162 0
160 161 162 0
-163 -164 0
-163 -165 0
-164 -165 0
163 164 165 0
-166 -167 0
-166 -168 0
-167 -168 0
166 167 168 0
-169 -170 0
-169 -171 0
-170 -171 0
169 170 171 0
-172 -173 0
-172 -174 0
-173 -174 0
172 173 174 0
-175 -176 0
-175 -177 0
-176 -177 0
175 176 177 0
-178 -179 0
-178 -180 0
-179 -180 0
178 179 180 0
-181 -182 0
-181 -183 0
-182 -183 0
181 182 183 0
-184 -185 0
-184 -186 0
-185 -186 0
184 185 186 0
-187 -188 0
-187 -189 0
-188 -189 0
187 188 189 0
-190 -191 0
-190 -192 0
-191 -192 0
190 191 192 0
-193 -194 0
-193 -195 0
-194 -195 0
193 194 195 0
-196 -197 0
-196 -198 0
-197 -198 0
196 197 198 0
-199 -200 0
-199 -201 0
-200 -201 0
199 200 201 0
-202 -203 0
-202 -204 0
-203 -204 0
202 203 204 0
-205 -206 0
-205 -207 0
-206 -207 0
205 206 207 0
-208 -209 0
-208 -210 0
-209 -210 0
208 209 210 0
-211 -212 0
-211 -213 0
-212 -213 0
211 212 213 0
-214 -215 0
-214 -216 0
-215 -216 0
214 215 216 0
-217 -218 0
-217 -219 0
-218 -219 0
217 218 219 0
-220 -221 0
-220 -222 0
-221 -222 0
220 221 222 0
-223 -224 0
-223 -225 0
-224 -225 0
223 224 225 0
-226 -227 0
-226 -228 0
-227 -228 0
226 227 228 0
-229 -230 0
-229 -231 0
-230 -231 0
229 230 231 0
-232 -233 0
-232 -234 0
-233 -234 0
232 233 234 0
-235 -236 0
-235 -237 0
-236 -237 0
235 236 237 0
-238 -239 0
-238 -240 0
-239 -240 0
238 239 240 0
-241 -242 0
-241 -243 0
-242 -243 0
241 242 243 0
-244 -245 0
-244 -246 0
-245 -246 0
244 245 246 0
-247 -248 0
-247 -249 0
-248 -249 0
247 248 249 0
-250 -251 0
-250 -252 0
-251 -252 0
250 251 252 0
-253 -254 0
-253 -255 0
-254 -255 0
253 254 255 0
-256 -257 0
-256 -258 0
-257 -258 0
256 257 258 0
-259 -260 0
-259 -261 0
-260 -261 0
259 260 261 0
-262 -263 0
-262 -264 0
-263 -264 0
262 263 264 0
-265 -266 0
-265 -267 0
-266 -267 0
265 266 267 0
-268 -269 0
-268 -270 0
-269 -270 0
268 269 270 0
-271 -272 0
-271 -273 0
-272 -273 0
271 272 273 0
-274 -275 0
-274 -276 0
-275 -276 0
274 275 276 0
-277 -278 0
-277 -279 0
-278 -279 0
277 278 279 0
-280 -281 0
-280 -282 0
-281 -282 0
280 281 282 0
-283 -284 0
-283 -285 0
-284 -285 0
283 284 285 0
-286 -287 0
-286 -288 0
-287 -288 0
286 287 288 0
-289 -290 0
-289 -291 0
-290 -291 0
289 290 291 0
-292 -293 0
-292 -294 0
-293 -294 0
292 293 294 0
-295 -296 0
-295 -297 0
-296 -297 0
295 296 297 0
-298 -299 0
-298 -300 0
-299 -300 0
298 299 300 0
-301 -302 0
-301 -303 0
-302 -303 0
301 302 303 0
-304 -305 0
-304 -306 0
-305 -306 0
304 305 306 0
-307 -308 0
-307 -309 0
-308 -309 0
307 308 309 0
-310 -311 0
-310 -312 0
-311 -312 0
310 311 312 0
-313 -314 0
-313 -315 0
-314 -315 0
313 314 315 0
-316 -317 0
-316 -318 0
-317 -318 0
316 317 318 0
-319 -320 0
-319 -321 0
-320 -321 0
319 320 321 0
-322 -323 0
-322 -324 0
-323 -324 0
322 323 324 0
-325 -326 0
-325 -327 0
-326 -327 0
325 326 327 0
-328 -329 0
-328 -330 0
-329 -330 0
328 329 330 0
-331 -332 0
-331 -333 0
-332 -333 0
331 332 333 0
-334 -335 0
-334 -336 0
-335 -336 0
334 335 336 0
-337 -338 0
-337 -339 0
-338 -339 0
337 338 339 0
-340 -341 0
-340 -342 0
-341 -342 0
340 341 342 0
-343 -344 0
-343 -345 0
-344 -345 0
343 344 345 0
-346 -347 0
-346 -348 0
-347 -348 0
346 347 348 0
-349 -350 0
-349 -351 0
-350 -351 0
349 350 351 0
-352 -353 0
-352 -354 0
-353 -354 0
352 353 354 0
-355 -356 0
-355 -357 0
-356 -357 0
355 356 357 0
-358 -359 0
-358 -360 0
-359 -360 0
358 359 360 0
-361 -362 0
-361 -363 0
-362 -363 0
361 362 363 0
-364 -365 0
-364 -366 0
-365 -366 0
364 365 366 0
-367 -368 0
-367 -369 0
-368 -369 0
367 368 369 0
-370 -371 0
-370 -372 0
-371 -372 0
370 371 372 0
-373 -374 0
-373 -375 0
-374 -375 0
373 374 375 0
-376 -377 0
-376 -378 0
-377 -378 0
376 377 378 0
-379 -380 0
-379 -381 0
-380 -381 0
379 380 381 0
-382 -383 0
-382 -384 0
-383 -384 0
382 383 384 0
-385 -386 0
-385 -387 0
-386 -387 0
385 386 387 0
-388 -389 0
-388 -390 0
-389 -390 0
388 389 390 0
-391 -392 0
-391 -393 0
-392 -393 0
391 392 393 0
-394 -395 0
-394 -396 0
-395 -396 0
394 395 396 0
-397 -398 0
-397 -399 0
-398 -399 0
397 398 399 0
-400 -401 0
-400 -402 0
-401 -402 0
400 401 402 0
-403 -404 0
-403 -405 0
-404 -405 0
403 404 405 0
-406 -407 0
-406 -408 0
-407 -408 0
406 407 408 0
-409 -410 0
-409 -411 0
-410 -411 0
409 410 411 0
-412 -413 0
-412 -414 0
-413 -414 0
412 413 414 0
-415 -416 0
-415 -417 0
-416 -417 0
415 416 417 0
-418 -419 0
-418 -420 0
-419 -420 0
418 419 420 0
-421 -422 0
-421 -423 0
-422 -423 0
421 422 423 0
-424 -425 0
-424 -426 0
-425 -426 0
424 425 426 0
-427 -428 0
-427 -429 0
-428 -429 0
427 428 429 0
-430 -431 0
-430 -432 0
-431 -432 0
430 431 432 0
-433 -434 0
-433 -435 0
-434 -435 0
433 434 435 0
-436 -437 0
-436 -438 0
-437 -438 0
436 437 438 0
-439 -440 0
-439 -441 0
-440 -441 0
439 440 441 0
-442 -443 0
-442 -444 0
-443 -444 0
442 443 444 0
-445 -446 0
-445 -447 0
-446 -447 0
445 446 447 0
-448 -449 0
-448 -450 0
-449 -450 0
448 449 450 0
-451 -452 0
-451 -453 0
-452 -453 0
451 452 453 0
-454 -455 0
-454 -456 0
-455 -456 0
454 455 456 0
-457 -458 0
-457 -459 0
-458 -459 0
457 458 459 0
-460 -461 0
-460 -462 0
-461 -462 0
460 461 462 0
-463 -464 0
-463 -465 0
-464 -465 0
463 464 465 0
-466 -467 0
-466 -468 0
-467 -468 0
466 467 468 0
-469 -470 0
-469 -471 0
-470 -471 0
469 470 471 0
-472 -473 0
-472 -474 0
-473 -474 0
472 473 474 0
-475 -476 0
-475 -477 0
-476 -477 0
475 476 477 0
-478 -479 0
-478 -480 0
-479 -480 0
478 479 480 0
-481 -482 0
-481 -483 0
-482 -483 0
481 482 483 0
-484 -485 0
-484 -486 0
-485 -486 0
484 485 486 0
-487 -488 0
-487 -489 0
-488 -489 0
487 488 489 0
-490 -491 0
-490 -492 0
-491 -492 0
490 491 492 0
-493 -494 0
-493 -495 0
-494 -495 0
493 494 495 0
-496 -497 0
-496 -498 0
-497 -498 0
496 497 498 0
-499 -500 0
-499 -501 0
-500 -501 0
499 500 501 0
-502 -503 0
-502 -504 0
-503 -504 0
502 503 504 0
-505 -506 0
-505 -507 0
-506 -507 0
505 506 507 0
-508 -509 0
-508 -510 0
-509 -510 0
508 509 510 0
-511 -512 0
-511 -513 0
-512 -513 0
511 512 513 0
-514 -515 0
-514 -516 0
-515 -516 0
514 515 516 0
-517 -518 0
-517 -519 0
-518 -519 0
517 518 519 0
-520 -521 0
-520 -522 0
-521 -522 0
520 521 522 0
-523 -524 0
-523 -525 0
-524 -525 0
523 524 525 0
-31 -1 0
-32 -2 0
-33 -3 0
-76 -1 0
-77 -2 0
-78 -3 0
-91 -1 0
-92 -2 0
-93 -3 0
-223 -1 0
-224 -2 0
-225 -3 0
-271 -1 0
-272 -2 0
-273 -3 0
-475 -1 0
-476 -2 0
-477 -3 0
-19 -4 0
-20 -5 0
-21 -6 0
-268 -4 0
-269 -5 0
-270 -6 0
-445 -4 0
-446 -5 0
-447 -6 0
-466 -4 0
-467 -5 0
-468 -6 0
-43 -7 0
-44 -8 0
-45 -9 0
-256 -7 0
-257 -8 0
-258 -9 0
-325 -7 0
-326 -8 0
-327 -9 0
-436 -7 0
-437 -8 0
-438 -9 0
-451 -7 0
-452 -8 0
-453 -9 0
-469 -7 0
-470 -8 0
-471 -9 0
-517 -7 0
-518 -8 0
-519 -9 0
-88 -10 0
-89 -11 0
-90 -12 0
-154 -10 0
-155 -11 0
-156 -12 0
-241 -10 0
-242 -11 0
-243 -12 0
-259 -10 0
-260 -11 0
-261 -12 0
-265 -10 0
-266 -11 0
-267 -12 0
-454 -10 0
-455 -11 0
-456 -12 0
-22 -13 0
-23 -14 0
-24 -15 0
-259 -13 0
-260 -14 0
-261 -15 0
-415 -13 0
-416 -14 0
-417 -15 0
-61 -16 0
-62 -17 0
-63 -18 0
-88 -16 0
-89 -17 0
-90 -18 0
-136 -16 0
-137 -17 0
-138 -18 0
-187 -19 0
-188 -20 0
-189 -21 0
-385 -19 0
-386 -20 0
-387 -21 0
-520 -19 0
-521 -20 0
-522 -21 0
-79 -22 0
-80 -23 0
-81 -24 0
-295 -22 0
-296 -23 0
-297 -24 0
-430 -22 0
-431 -23 0
-432 -24 0
-70 -25 0
-71 -26 0
-72 -27 0
-151 -25 0
-152 -26 0
-153 -27 0
-226 -25 0
-227 -26 0
-228 -27 0
-262 -25 0
-263 -26 0
-264 -27 0
-370 -25 0
-371 -26 0
-372 -27 0
-493 -25 0
-494 -26 0
-495 -27 0
-502 -25 0
-503 -26 0
-504 -27 0
-148 -28 0
-149 -29 0
-150 -30 0
-178 -28 0
-179 -29 0
-180 -30 0
-433 -28 0
-434 -29 0
-435 -30 0
-187 -31 0
-188 -32 0
-189 -33 0
-265 -31 0
-266 -32 0
-267 -33 0
-52 -34 0
-53 -35 0
-54 -36 0
-208 -34 0
-209 -35 0
-210 -36 0
-217 -34 0
-218 -35 0
-219 -36 0
-307 -34 0
-308 -35 0
-309 -36 0
-373 -34 0
-374 -35 0
-375 -36 0
-412 -34 0
-413 -35 0
-414 -36 0
-268 -37 0
-269 -38 0
-270 -39 0
-304 -37 0
-305 -38 0
-306 -39 0
-517 -37 0
-518 -38 0
-519 -39 0
-214 -40 0
-215 -41 0
-216 -42 0
-247 -40 0
-248 -41 0
-249 -42 0
-454 -40 0
-455 -41 0
-456 -42 0
-499 -40 0
-500 -41 0
-501 -42 0
-502 -40 0
-503 -41 0
-504 -42 0
-136 -43 0
-137 -44 0
-138 -45 0
-157 -43 0
-158 -44 0
-159 -45 0
-208 -46 0
-209 -47 0
-210 -48 0
-256 -46 0
-257 -47 0
-258 -48 0
-268 -46 0
-269 -47 0
-270 -48 0
-382 -46 0
-383 -47 0
-384 -48 0
-121 -49 0
-122 -50 0
-123 -51 0
-361 -49 0
-362 -50 0
-363 -51 0
-370 -49 0
-371 -50 0
-372 -51 0
-97 -52 0
-98 -53 0
-99 -54 0
-148 -52 0
-149 -53 0
-150 -54 0
-223 -52 0
-224 -53 0
-225 -54 0
-274 -52 0
-275 -53 0
-276 -54 0
-202 -55 0
-203 -56 0
-204 -57 0
-295 -55 0
-296 -56 0
-297 -57 0
-373 -55 0
-374 -56 0
-375 -57 0
-244 -58 0
-245 -59 0
-246 -60 0
-295 -58 0
-296 -59 0
-297 -60 0
-316 -58 0
-317 -59 0
-318 -60 0
-442 -58 0
-443 -59 0
-444 -60 0
-214 -61 0
-215 -62 0
-216 -63 0
-73 -64 0
-74 -65 0
-75 -66 0
-127 -64 0
-128 -65 0
-129 -66 0
-313 -64 0
-314 -65 0
-315 -66 0
-493 -64 0
-494 -65 0
-495 -66 0
-520 -64 0
-521 -65 0
-522 -66 0
-172 -67 0
-173 -68 0
-174 -69 0
-424 -67 0
-425 -68 0
-426 -69 0
-493 -67 0
-494 -68 0
-495 -69 0
-88 -70 0
-89 -71 0
-90 -72 0
-382 -70 0
-383 -71 0
-384 -72 0
-472 -70 0
-473 -71 0
-474 -72 0
-490 -70 0
-491 -71 0
-492 -72 0
-193 -73 0
-194 -74 0
-195 -75 0
-310 -73 0
-311 -74 0
-312 -75 0
-469 -73 0
-470 -74 0
-471 -75 0
-472 -73 0
-473 -74 0
-474 -75 0
-478 -73 0
-479 -74 0
-480 -75 0
-103 -79 0
-104 -80 0
-105 -81 0
-280 -79 0
-281 -80 0
-282 -81 0
-385 -79 0
-386 -80 0
-387 -81 0
-94 -82 0
-95 -83 0
-96 -84 0
-145 -82 0
-146 -83 0
-147 -84 0
-202 -82 0
-203 -83 0
-204 -84 0
-229 -82 0
-230 -83 0
-231 -84 0
-439 -82 0
-440 -83 0
-441 -84 0
-466 -82 0
-467 -83 0
-468 -84 0
-136 -85 0
-137 -86 0
-138 -87 0
-163 -85 0
-164 -86 0
-165 -87 0
-247 -85 0
-248 -86 0
-249 -87 0
-250 -85 0
-251 -86 0
-252 -87 0
-259 -85 0
-260 -86 0
-261 -87 0
-262 -85 0
-263 -86 0
-264 -87 0
-439 -85 0
-440 -86 0
-441 -87 0
-517 -85 0
-518 -86 0
-519 -87 0
-178 -88 0
-179 -89 0
-180 -90 0
-184 -88 0
-185 -89 0
-186 -90 0
-199 -88 0
-200 -89 0
-201 -90 0
-397 -88 0
-398 -89 0
-399 -90 0
-103 -91 0
-104 -92 0
-105 -93 0
-412 -91 0
-413 -92 0
-414 -93 0
-130 -94 0
-131 -95 0
-132 -96 0
-223 -94 0
-224 -95 0
-225 -96 0
-232 -94 0
-233 -95 0
-234 -96 0
-379 -94 0
-380 -95 0
-381 -96 0
-385 -94 0
-386 -95 0
-387 -96 0
-418 -94 0
-419 -95 0
-420 -96 0
-508 -94 0
-509 -95 0
-510 -96 0
-202 -97 0
-203 -98 0
-204 -99 0
-409 -97 0
-410 -98 0
-411 -99 0
-421 -97 0
-422 -98 0
-423 -99 0
-166 -100 0
-167 -101 0
-168 -102 0
-175 -100 0
-176 -101 0
-177 -102 0
-280 -100 0
-281 -101 0
-282 -102 0
-370 -100 0
-371 -101 0
-372 -102 0
-418 -100 0
-419 -101 0
-420 -102 0
-430 -100 0
-431 -101 0
-432 -102 0
-490 -100 0
-491 -101 0
-492 -102 0
-520 -100 0
-521 -101 0
-522 -102 0
-115 -103 0
-116 -104 0
-117 -105 0
-283 -103 0
-284 -104 0
-285 -105 0
-445 -103 0
-446 -104 0
-447 -105 0
-487 -103 0
-488 -104 0
-489 -105 0
-508 -103 0
-509 -104 0
-510 -105 0
-511 -103 0
-512 -104 0
-513 -105 0
-283 -106 0
-284 -107 0
-285 -108 0
-292 -106 0
-293 -107 0
-294 -108 0
-298 -106 0
-299 -107 0
-300 -108 0
-163 -109 0
-164 -110 0
-165 -111 0
-205 -109 0
-206 -110 0
-207 -111 0
-349 -109 0
-350 -110 0
-351 -111 0
-502 -109 0
-503 -110 0
-504 -111 0
-118 -112 0
-119 -113 0
-120 -114 0
-154 -112 0
-155 -113 0
-156 -114 0
-190 -112 0
-191 -113 0
-192 -114 0
-193 -112 0
-194 -113 0
-195 -114 0
-280 -118 0
-281 -119 0
-282 -120 0
-160 -121 0
-161 -122 0
-162 -123 0
-223 -121 0
-224 -122 0
-225 -123 0
-229 -121 0
-230 -122 0
-231 -123 0
-136 -124 0
-137 -125 0
-138 -126 0
-391 -124 0
-392 -125 0
-393 -126 0
-475 -124 0
-476 -125 0
-477 -126 0
-442 -127 0
-443 -128 0
-444 -129 0
-466 -127 0
-467 -128 0
-468 -129 0
-523 -127 0
-524 -128 0
-525 -129 0
-139 -130 0
-140 -131 0
-141 -132 0
-274 -130 0
-275 -131 0
-276 -132 0
-334 -130 0
-335 -131 0
-336 -132 0
-478 -130 0
-479 -131 0
-480 -132 0
-493 -130 0
-494 -131 0
-495 -132 0
-166 -133 0
-167 -134 0
-168 -135 0
-205 -133 0
-206 -134 0
-207 -135 0
-214 -133 0
-215 -134 0
-216 -135 0
-274 -136 0
-275 -137 0
-276 -138 0
-412 -136 0
-413 -137 0
-414 -138 0
-481 -136 0
-482 -137 0
-483 -138 0
-268 -139 0
-269 -140 0
-270 -141 0
-289 -139 0
-290 -140 0
-291 -141 0
-301 -139 0
-302 -140 0
-303 -141 0
-328 -139 0
-329 -140 0
-330 -141 0
-211 -142 0
-212 -143 0
-213 -144 0
-223 -142 0
-224 -143 0
-225 -144 0
-235 -142 0
-236 -143 0
-237 -144 0
-277 -142 0
-278 -143 0
-279 -144 0
-343 -142 0
-344 -143 0
-345 -144 0
-391 -142 0
-392 -143 0
-393 -144 0
-460 -142 0
-461 -143 0
-462 -144 0
-211 -145 0
-212 -146 0
-213 -147 0
-214 -145 0
-215 -146 0
-216 -147 0
-298 -145 0
-299 -146 0
-300 -147 0
-373 -145 0
-374 -146 0
-375 -147 0
-448 -145 0
-449 -146 0
-450 -147 0
-478 -145 0
-479 -146 0
-480 -147 0
-340 -148 0
-341 -149 0
-342 -150 0
-433 -148 0
-434 -149 0
-435 -150 0
-292 -151 0
-293 -152 0
-294 -153 0
-301 -151 0
-302 -152 0
-303 -153 0
-325 -151 0
-326 -152 0
-327 -153 0
-337 -154 0
-338 -155 0
-339 -156 0
-505 -154 0
-506 -155 0
-507 -156 0
-211 -157 0
-212 -158 0
-213 -159 0
-463 -157 0
-464 -158 0
-465 -159 0
-511 -157 0
-512 -158 0
-513 -159 0
-196 -160 0
-197 -161 0
-198 -162 0
-211 -160 0
-212 -161 0
-213 -162 0
-244 -160 0
-245 -161 0
-246 -162 0
-505 -160 0
-506 -161 0
-507 -162 0
-277 -163 0
-278 -164 0
-279 -165 0
-334 -163 0
-335 -164 0
-336 -165 0
-364 -163 0
-365 -164 0
-366 -165 0
-418 -163 0
-419 -164 0
-420 -165 0
-427 -163 0
-428 -164 0
-429 -165 0
-283 -166 0
-284 -167 0
-285 -168 0
-310 -166 0
-311 -167 0
-312 -168 0
-343 -166 0
-344 -167 0
-345 -168 0
-505 -166 0
-506 -167 0
-507 -168 0
-409 -169 0
-410 -170 0
-411 -171 0
-412 -169 0
-413 -170 0
-414 -171 0
-424 -169 0
-425 -170 0
-426 -171 0
-499 -169 0
-500 -170 0
-501 -171 0
-310 -172 0
-311 -173 0
-312 -174 0
-328 -172 0
-329 -173 0
-330 -174 0
-370 -172 0
-371 -173 0
-372 -174 0
-397 -172 0
-398 -173 0
-399 -174 0
-496 -172 0
-497 -173 0
-498 -174 0
-511 -172 0
-512 -173 0
-513 -174 0
-202 -175 0
-203 -176 0
-204 -177 0
-283 -175 0
-284 -176 0
-285 -177 0
-436 -175 0
-437 -176 0
-438 -177 0
-493 -175 0
-494 -176 0
-495 -177 0
-376 -178 0
-377 -179 0
-378 -180 0
-415 -178 0
-416 -179 0
-417 -180 0
-454 -178 0
-455 -179 0
-456 -180 0
-466 -178 0
-467 -179 0
-468 -180 0
-217 -181 0
-218 -182 0
-219 -183 0
-241 -181 0
-242 -182 0
-243 -183 0
-304 -181 0
-305 -182 0
-306 -183 0
-463 -181 0
-464 -182 0
-465 -183 0
-250 -184 0
-251 -185 0
-252 -186 0
-268 -184 0
-269 -185 0
-270 -186 0
-421 -184 0
-422 -185 0
-423 -186 0
-472 -184 0
-473 -185 0
-474 -186 0
-511 -184 0
-512 -185 0
-513 -186 0
-232 -187 0
-233 -188 0
-234 -189 0
-235 -187 0
-236 -188 0
-237 -189 0
-448 -187 0
-449 -188 0
-450 -189 0
-505 -187 0
-506 -188 0
-507 -189 0
-199 -190 0
-200 -191 0
-201 -192 0
-322 -190 0
-323 -191 0
-324 -192 0
-391 -190 0
-392 -191 0
-393 -192 0
-280 -193 0
-281 -194 0
-282 -195 0
-313 -193 0
-314 -194 0
-315 -195 0
-451 -193 0
-452 -194 0
-453 -195 0
-508 -193 0
-509 -194 0
-510 -195 0
-475 -199 0
-476 -200 0
-477 -201 0
-478 -199 0
-479 -200 0
-480 -201 0
-268 -202 0
-269 -203 0
-270 -204 0
-283 -202 0
-284 -203 0
-285 -204 0
-343 -205 0
-344 -206 0
-345 -207 0
-364 -205 0
-365 -206 0
-366 -207 0
-508 -205 0
-509 -206 0
-510 -207 0
-211 -208 0
-212 -209 0
-213 -210 0
-316 -208 0
-317 -209 0
-318 -210 0
-436 -208 0
-437 -209 0
-438 -210 0
-439 -208 0
-440 -209 0
-441 -210 0
-238 -211 0
-239 -212 0
-240 -213 0
-259 -211 0
-260 -212 0
-261 -213 0
-436 -211 0
-437 -212 0
-438 -213 0
-322 -214 0
-323 -215 0
-324 -216 0
-385 -214 0
-386 -215 0
-387 -216 0
-433 -217 0
-434 -218 0
-435 -219 0
-439 -217 0
-440 -218 0
-441 -219 0
-403 -220 0
-404 -221 0
-405 -222 0
-490 -220 0
-491 -221 0
-492 -222 0
-517 -220 0
-518 -221 0
-519 -222 0
-487 -223 0
-488 -224 0
-489 -225 0
-244 -226 0
-245 -227 0
-246 -228 0
-406 -226 0
-407 -227 0
-408 -228 0
-421 -226 0
-422 -227 0
-423 -228 0
-307 -229 0
-308 -230 0
-309 -231 0
-373 -229 0
-374 -230 0
-375 -231 0
-265 -232 0
-266 -233 0
-267 -234 0
-271 -232 0
-272 -233 0
-273 -234 0
-337 -232 0
-338 -233 0
-339 -234 0
-370 -232 0
-371 -233 0
-372 -234 0
-409 -232 0
-410 -233 0
-411 -234 0
-502 -232 0
-503 -233 0
-504 -234 0
-259 -235 0
-260 -236 0
-261 -237 0
-286 -235 0
-287 -236 0
-288 -237 0
-460 -235 0
-461 -236 0
-462 -237 0
-298 -238 0
-299 -239 0
-300 -240 0
-418 -241 0
-419 -242 0
-420 -243 0
-283 -244 0
-284 -245 0
-285 -246 0
-319 -244 0
-320 -245 0
-321 -246 0
-457 -244 0
-458 -245 0
-459 -246 0
-460 -244 0
-461 -245 0
-462 -246 0
-331 -247 0
-332 -248 0
-333 -249 0
-388 -247 0
-389 -248 0
-390 -249 0
-490 -250 0
-491 -251 0
-492 -252 0
-409 -253 0
-410 -254 0
-411 -255 0
-514 -253 0
-515 -254 0
-516 -255 0
-301 -259 0
-302 -260 0
-303 -261 0
-391 -259 0
-392 -260 0
-393 -261 0
-409 -262 0
-410 -263 0
-411 -264 0
-472 -265 0
-473 -266 0
-474 -267 0
-478 -265 0
-479 -266 0
-480 -267 0
-409 -268 0
-410 -269 0
-411 -270 0
-298 -271 0
-299 -272 0
-300 -273 0
-325 -271 0
-326 -272 0
-327 -273 0
-496 -271 0
-497 -272 0
-498 -273 0
-394 -274 0
-395 -275 0
-396 -276 0
-409 -274 0
-410 -275 0
-411 -276 0
-322 -277 0
-323 -278 0
-324 -279 0
-361 -277 0
-362 -278 0
-363 -279 0
-337 -280 0
-338 -281 0
-339 -282 0
-466 -280 0
-467 -281 0
-468 -282 0
-496 -280 0
-497 -281 0
-498 -282 0
-481 -283 0
-482 -284 0
-483 -285 0
-379 -286 0
-380 -287 0
-381 -288 0
-403 -286 0
-404 -287 0
-405 -288 0
-415 -286 0
-416 -287 0
-417 -288 0
-442 -286 0
-443 -287 0
-444 -288 0
-457 -286 0
-458 -287 0
-459 -288 0
-463 -286 0
-464 -287 0
-465 -288 0
-379 -289 0
-380 -290 0
-381 -291 0
-325 -292 0
-326 -293 0
-327 -294 0
-331 -292 0
-332 -293 0
-333 -294 0
-343 -292 0
-344 -293 0
-345 -294 0
-355 -292 0
-356 -293 0
-357 -294 0
-358 -292 0
-359 -293 0
-360 -294 0
-310 -295 0
-311 -296 0
-312 -297 0
-313 -295 0
-314 -296 0
-315 -297 0
-325 -298 0
-326 -299 0
-327 -300 0
-430 -298 0
-431 -299 0
-432 -300 0
-445 -298 0
-446 -299 0
-447 -300 0
-436 -301 0
-437 -302 0
-438 -303 0
-379 -304 0
-380 -305 0
-381 -306 0
-433 -304 0
-434 -305 0
-435 -306 0
-442 -304 0
-443 -305 0
-444 -306 0
-496 -304 0
-497 -305 0
-498 -306 0
-334 -310 0
-335 -311 0
-336 -312 0
-367 -313 0
-368 -314 0
-369 -315 0
-472 -313 0
-473 -314 0
-474 -315 0
-520 -313 0
-521 -314 0
-522 -315 0
-340 -316 0
-341 -317 0
-342 -318 0
-433 -316 0
-434 -317 0
-435 -318 0
-493 -319 0
-494 -320 0
-495 -321 0
-385 -322 0
-386 -323 0
-387 -324 0
-421 -322 0
-422 -323 0
-423 -324 0
-484 -322 0
-485 -323 0
-486 -324 0
-328 -325 0
-329 -326 0
-330 -327 0
-349 -328 0
-350 -329 0
-351 -330 0
-469 -328 0
-470 -329 0
-471 -330 0
-409 -331 0
-410 -332 0
-411 -333 0
-445 -331 0
-446 -332 0
-447 -333 0
-358 -334 0
-359 -335 0
-360 -336 0
-451 -334 0
-452 -335 0
-453 -336 0
-496 -334 0
-497 -335 0
-498 -336 0
-361 -337 0
-362 -338 0
-363 -339 0
-388 -340 0
-389 -341 0
-390 -342 0
-523 -343 0
-524 -344 0
-525 -345 0
-367 -346 0
-368 -347 0
-369 -348 0
-421 -346 0
-422 -347 0
-423 -348 0
-472 -346 0
-473 -347 0
-474 -348 0
-373 -349 0
-374 -350 0
-375 -351 0
-427 -352 0
-428 -353 0
-429 -354 0
-487 -352 0
-488 -353 0
-489 -354 0
-493 -352 0
-494 -353 0
-495 -354 0
-358 -355 0
-359 -356 0
-360 -357 0
-376 -355 0
-377 -356 0
-378 -357 0
-388 -355 0
-389 -356 0
-390 -357 0
-508 -355 0
-509 -356 0
-510 -357 0
-364 -358 0
-365 -359 0
-366 -360 0
-388 -358 0
-389 -359 0
-390 -360 0
-457 -358 0
-458 -359 0
-459 -360 0
-364 -361 0
-365 -362 0
-366 -363 0
-388 -361 0
-389 -362 0
-390 -363 0
-481 -361 0
-482 -362 0
-483 -363 0
-496 -361 0
-497 -362 0
-498 -363 0
-430 -364 0
-431 -365 0
-432 -366 0
-460 -367 0
-461 -368 0
-462 -369 0
-463 -367 0
-464 -368 0
-465 -369 0
-418 -370 0
-419 -371 0
-420 -372 0
-502 -376 0
-503 -377 0
-504 -378 0
-511 -376 0
-512 -377 0
-513 -378 0
-412 -382 0
-413 -383 0
-414 -384 0
-412 -385 0
-413 -386 0
-414 -387 0
-418 -391 0
-419 -392 0
-420 -393 0
-400 -394 0
-401 -395 0
-402 -396 0
-490 -394 0
-491 -395 0
-492 -396 0
-445 -403 0
-446 -404 0
-447 -405 0
-415 -406 0
-416 -407 0
-417 -408 0
-463 -406 0
-464 -407 0
-465 -408 0
-472 -406 0
-473 -407 0
-474 -408 0
-454 -415 0
-455 -416 0
-456 -417 0
-475 -418 0
-476 -419 0
-477 -420 0
-508 -418 0
-509 -419 0
-510 -420 0
-466 -424 0
-467 -425 0
-468 -426 0
-514 -424 0
-515 -425 0
-516 -426 0
-502 -427 0
-503 -428 0
-504 -429 0
-520 -433 0
-521 -434 0
-522 -435 0
-511 -451 0
-512 -452 0
-513 -453 0
-523 -457 0
-524 -458 0
-525 -459 0
-505 -460 0
-506 -461 0
-507 -462 0
-517 -463 0
-518 -464 0
-519 -465 0
-523 -463 0
-524 -464 0
-525 -465 0
-499 -472 0
-500 -473 0
-501 -474 0
-505 -475 0
-506 -476 0
-507 -477 0
-496 -481 0
-497 -482 0
-498 -483 0
-511 -484 0
-512 -485 0
-513 -486 0
-505 -487 0
-506 -488 0
-507 -489 0
-514 -493 0
-515 -494 0
-516 -495 0
-517 -502 0
-518 -503 0
-519 -504 0
-514 -505 0
-515 -506 0
-516 -507 0
-511 -508 0
-512 -509 0
-513 -510 0
